NAME: bip_30_0
TYPE: TSP
COMMENT: bip_30_0
DIMENSION: 30
EDGE_WEIGHT_TYPE: EUC_2D
NODE_COORD_SECTION
1 62 46
2 27 65
3 93 69
4 34 93
5 70 97
6 57 14
7 32 91
8 17 5
9 91 79
10 34 44
11 5 34
12 66 70
13 23 86
14 60 96
15 19 31
16 417 446
17 487 426
18 476 487
19 409 470
20 421 424
21 418 421
22 407 484
23 429 402
24 411 415
25 469 428
26 423 414
27 442 437
28 428 470
29 440 499
30 411 477
